************************************************************************
file with basedata            : J12037_.BAS
initial value random generator: 2099954704
************************************************************************
projects                      :  1
jobs (incl. supersource/sink ):  122
horizon                       :  647
RESOURCES
  - renewable                 :  4   R
  - nonrenewable              :  0   N
  - doubly constrained        :  0   D
************************************************************************
PROJECT INFORMATION:
pronr.  #jobs rel.date duedate tardcost  MPM-Time
    1    120      0      116       85      116
************************************************************************
PRECEDENCE RELATIONS:
jobnr.    #modes  #successors   successors
   1        1          3           2   3   4
   2        1          3           5   6   9
   3        1          3          18  34  47
   4        1          3          20  36  38
   5        1          2          24  84
   6        1          3           7  13  16
   7        1          3           8  11  31
   8        1          3          10  15  19
   9        1          3          22  54  85
  10        1          3          35  51  52
  11        1          3          12  27  49
  12        1          3          17  24  29
  13        1          3          14  31  32
  14        1          3          23  28  33
  15        1          1          92
  16        1          1          96
  17        1          3          43  56  91
  18        1          3          63  65 104
  19        1          3          21  69  78
  20        1          2          57  64
  21        1          3          26  44  86
  22        1          2          37  72
  23        1          2          48  83
  24        1          2          25  30
  25        1          3          57  65 113
  26        1          2          57  80
  27        1          2         106 112
  28        1          2          62 110
  29        1          2          46  56
  30        1          2          39  74
  31        1          2          50  85
  32        1          2          42  48
  33        1          3          42  45  71
  34        1          1          59
  35        1          3          39  40  48
  36        1          1         104
  37        1          2          42  77
  38        1          1          39
  39        1          2          41 119
  40        1          2          66  67
  41        1          1          97
  42        1          2          58  64
  43        1          3          55  75 109
  44        1          2          54  64
  45        1          1          53
  46        1          1          58
  47        1          2          90 120
  48        1          1          58
  49        1          3          54  60 101
  50        1          3          71  77  79
  51        1          2          61  88
  52        1          2          82 105
  53        1          1          87
  54        1          2          68  81
  55        1          1         107
  56        1          1          95
  57        1          2          97 118
  58        1          3          73  84 105
  59        1          1          62
  60        1          2          70  78
  61        1          2          82 118
  62        1          2          87  96
  63        1          2          92 115
  64        1          1          73
  65        1          2          83 111
  66        1          3          78  90 102
  67        1          2          68  76
  68        1          1          97
  69        1          2         102 103
  70        1          2          71 106
  71        1          2          81 121
  72        1          2          77  94
  73        1          2          79  94
  74        1          3          80  89  98
  75        1          2          90 116
  76        1          1         101
  77        1          1         120
  78        1          2          88  93
  79        1          1         108
  80        1          1         108
  81        1          1         114
  82        1          1          93
  83        1          1         120
  84        1          2         102 114
  85        1          1         115
  86        1          1          99
  87        1          2          92 111
  88        1          2          95  98
  89        1          2          91  96
  90        1          2          93  94
  91        1          3         101 109 117
  92        1          2         105 107
  93        1          1          99
  94        1          1          95
  95        1          1          99
  96        1          1         107
  97        1          1         100
  98        1          2         100 109
  99        1          1         100
 100        1          1         103
 101        1          1         104
 102        1          1         106
 103        1          1         111
 104        1          2         110 114
 105        1          1         112
 106        1          1         118
 107        1          1         108
 108        1          1         112
 109        1          2         110 121
 110        1          1         113
 111        1          1         115
 112        1          2         113 117
 113        1          1         116
 114        1          1         116
 115        1          1         117
 116        1          1         119
 117        1          1         121
 118        1          1         119
 119        1          1         122
 120        1          1         122
 121        1          1         122
 122        1          0        
************************************************************************
REQUESTS/DURATIONS:
jobnr. mode duration  R 1  R 2  R 3  R 4
------------------------------------------------------------------------
  1      1     0       0    0    0    0
  2      1     6       7    4    3    3
  3      1     7       7    3    9    1
  4      1     9       5    7    1    3
  5      1     2      10    8    9    5
  6      1     8       1   10    1    5
  7      1     4      10    6    8   10
  8      1     2       3    6   10   10
  9      1    10       7    5    8    5
 10      1     9       9    5    3    3
 11      1     2      10    7    1    8
 12      1    10       8    5    1    9
 13      1     3       7    6    1    7
 14      1     9       8    5   10    1
 15      1     9       2    1    1    7
 16      1     2      10    2   10    5
 17      1     2      10    7    5    4
 18      1     2       2    8   10    3
 19      1     5       7    6    2    3
 20      1     5       5   10   10    8
 21      1     9       7    4    5   10
 22      1     4      10    9    9    4
 23      1     2       6    2    3    3
 24      1     2       7    1    6    3
 25      1     5       8    7    8    7
 26      1     8       7    9    8    2
 27      1     6       8    8    5    5
 28      1     6       6    4    6    7
 29      1     1       6    1   10    9
 30      1     6       9    8    5    6
 31      1     3       4    4    5   10
 32      1     5       6   10    7   10
 33      1     5       9    5    7    8
 34      1     8       6    6    1    8
 35      1     9       1    9    5    4
 36      1     9      10    5    5    7
 37      1     2       8    5    1    4
 38      1    10       6   10    4   10
 39      1     3      10    4    9    7
 40      1     3       3    7    7    3
 41      1     8       9    2    3    6
 42      1     5       6    7    5    2
 43      1    10       5    6    1    6
 44      1     2       4    8    9    1
 45      1     5       3    5    9    7
 46      1     7       1    5    6   10
 47      1     8       9    3    7   10
 48      1    10       7    1    5    9
 49      1     1       4    7    8    5
 50      1     8       6    3    8    7
 51      1     1       1    9    7    3
 52      1    10       3    8    1    9
 53      1     9       2    4    5    5
 54      1     3       2    8    8   10
 55      1     1      10    9    7   10
 56      1     3       3    5   10    7
 57      1     4       6    9    4    7
 58      1     2       6   10    4    5
 59      1     6       1    6    5    6
 60      1     2       2    2    9    4
 61      1     1       7   10    8    9
 62      1     1       8    4    4    5
 63      1     5       7   10    2    6
 64      1     9       7    6    5    2
 65      1     7      10   10    8    6
 66      1     6       2    7    8    6
 67      1     3       9    1    2    6
 68      1     7       5    5    5    9
 69      1     4       4    2    6    9
 70      1     9       9   10    9    8
 71      1     2      10    9    5    5
 72      1     9       7    4    6    1
 73      1     9       5    4    2   10
 74      1     9       6    3    8    1
 75      1     5      10    9    7    6
 76      1     2       4    7    1    8
 77      1     1       4    5    6    8
 78      1     4       1    1    3    9
 79      1    10       8    7    4    4
 80      1     5       8    5    1    3
 81      1     7       8    5    9    6
 82      1     5       9    1    6    1
 83      1     2       1    5    9    4
 84      1     1       1    2    4    1
 85      1     3       6   10    8    1
 86      1     2       2    2    6    2
 87      1     6       5    5    9    9
 88      1     1      10   10    9    5
 89      1     1       6    1    4    7
 90      1     6       1    2    6    4
 91      1     9      10    3   10    2
 92      1     6       6    9   10    7
 93      1    10       6   10    8    1
 94      1     1       9    5    6    3
 95      1     9       9    9    9    3
 96      1     8       2    9    3    9
 97      1     4       1    7    6   10
 98      1    10       4   10    3    9
 99      1     3       7   10   10   10
100      1     5       2    7    7    4
101      1     7       6    2    9    3
102      1     1      10    1    6    9
103      1     9       7    2    1    8
104      1    10       6   10    2    2
105      1     1      10    8    4    1
106      1     3       6    2    5    9
107      1     8       3    4    9    8
108      1     3       2    8    5    4
109      1     6      10    7    4    5
110      1     2      10    6    2    2
111      1     5       9    4    2    3
112      1     3       7    4    3    2
113      1     9       8    5    9   10
114      1    10       1    6    5    6
115      1     9       9    1    7    4
116      1     2       5    7    4    4
117      1    10       4    4    8    3
118      1    10       4    2    2    1
119      1     8       4    3    8    9
120      1     1       8    1    8    8
121      1     6       1    2    6    6
122      1     0       0    0    0    0
************************************************************************
RESOURCEAVAILABILITIES:
  R 1  R 2  R 3  R 4
   27   24   23   24
************************************************************************
